; benchmark generated from python API
(set-info :status unknown)
(declare-fun L_0 () Real)
(declare-fun S_2 () Real)
(declare-fun A_0 () Real)
(declare-fun S_4 () Real)
(declare-fun S_1 () Real)
(declare-fun A_1 () Real)
(declare-fun L_1 () Real)
(declare-fun S_0 () Real)
(declare-fun A_3 () Real)
(declare-fun L_2 () Real)
(declare-fun B () Real)
(declare-fun A_2 () Real)
(declare-fun S_3 () Real)
(declare-fun A_4 () Real)
(assert
 (let (($x2232 (<= (+ (* (- 2.0) S_4) (* (- 1.0) A_0) (* 3.0 S_2) L_0) 0.0)))
 (let (($x2558 (<= (+ (* (/ 1.0 2.0) L_1) (* (- (/ 1.0 2.0)) A_1) (* (- (/ 1.0 2.0)) S_4) S_2) 0.0)))
 (let (($x34 (>= L_0 0.0)))
 (let (($x732 (>= B 5.0)))
 (let ((?x447 (* (- 1.0) S_2)))
 (let ((?x527 (* (- 1.0) B)))
 (let ((?x414 (* (- 1.0) A_2)))
 (let (($x1323 (<= (+ (* (- 1.0) L_1) A_1 ?x447) 0.0)))
 (let (($x12742 (<= (+ (* (- 2.0) L_1) (* 2.0 A_1) S_4 (* (- 3.0) S_3)) 0.0)))
 (let (($x1554 (<= (+ A_2 (* (- 1.0) L_2) (* (- 1.0) S_3)) 0.0)))
 (let (($x18615 (or $x1554 (<= (+ (* (/ 1.0 2.0) S_4) (* (- 1.0) S_3) (* (/ 1.0 2.0) S_0)) 0.0) $x12742)))
 (let ((?x967 (* (- 1.0) S_0)))
 (let ((?x939 (* 2.0 A_2)))
 (let ((?x1571 (* (- 2.0) S_4)))
 (let ((?x938 (* (- 2.0) L_2)))
 (let (($x19100 (or (<= (+ (* (- 1.0) S_4) (* 2.0 S_1) ?x967) 0.0) (<= (+ ?x938 ?x1571 ?x939 S_1 ?x967) 0.0))))
 (let ((?x989 (* (- 1.0) A_0)))
 (let ((?x398 (* (- 1.0) S_4)))
 (let ((?x497 (* (- 1.0) L_2)))
 (let (($x34140 (or (<= (+ (* (- (/ 1.0 2.0)) S_4) ?x989 (* (/ 3.0 2.0) S_1) L_0) 0.0) (<= (+ ?x497 ?x398 A_2 ?x989 S_1 L_0) 0.0))))
 (let (($x6858 (<= (+ (* 2.0 B) S_4 (* (- 2.0) A_2) S_0 (* 2.0 L_2)) 0.0)))
 (let ((?x856 (* 3.0 L_2)))
 (let ((?x861 (* (- 3.0) A_2)))
 (let ((?x1269 (* 3.0 B)))
 (let ((?x864 (* 2.0 A_1)))
 (let ((?x860 (* (- 2.0) L_1)))
 (let (($x61 (= L_2 L_1)))
 (let ((?x5619 (* (/ 1.0 2.0) S_0)))
 (let ((?x3404 (* (/ 1.0 2.0) B)))
 (let (($x34357 (or $x61 (<= (+ (* (- 1.0) L_1) A_1 B ?x414 L_2) (- 5.0)) (<= (+ ?x3404 (* (- (/ 1.0 2.0)) A_2) ?x5619 (* (/ 1.0 2.0) L_2)) (- 5.0)))))
 (let (($x7827 (<= (+ (* 2.0 B) (* (- 2.0) A_2) S_3 S_1 (* 2.0 L_2)) 0.0)))
 (let (($x6897 (<= (+ (* (/ 3.0 2.0) B) (* (- (/ 3.0 2.0)) A_2) S_3 ?x5619 (* (/ 3.0 2.0) L_2)) 0.0)))
 (let ((?x942 (* 2.0 L_2)))
 (let ((?x943 (* (- 2.0) A_2)))
 (let ((?x1315 (* 2.0 B)))
 (let ((?x510 (* (- 1.0) L_1)))
 (let (($x20783 (not (<= 0.0 (+ ?x3404 S_4 (* (- (/ 3.0 2.0)) A_2) ?x5619 (* (/ 3.0 2.0) L_2))))))
 (let (($x24429 (or $x61 (not (<= (+ ?x527 ?x398 ?x939 (* (- 1.0) A_1) ?x938 L_0) 0.0)) $x20783)))
 (let (($x1314 (<= (+ L_1 (* (- 1.0) A_1) (* (- 2.0) B) ?x398 ?x939 ?x938) 0.0)))
 (let ((?x2348 (* (/ 1.0 3.0) S_0)))
 (let ((?x436 (* (- 1.0) S_3)))
 (let ((?x2471 (* (/ 2.0 3.0) S_4)))
 (let ((?x2631 (* (- (/ 2.0 3.0)) B)))
 (let (($x9249 (not (<= (+ ?x398 (* (- 1.0) A_1) (* 2.0 S_3) B L_0) 0.0))))
 (let (($x34411 (or $x61 (<= (+ B ?x414 ?x989 (* 2.0 S_1) L_2 L_0) 0.0))))
 (let ((?x1570 (* (- 3.0) L_2)))
 (let ((?x974 (* 3.0 A_2)))
 (let ((?x3363 (* (- 3.0) B)))
 (let (($x34389 (or $x1554 (not (<= 0.0 (+ (* (- 1.0) A_1) (* (/ 1.0 2.0) S_3) ?x5619 L_1))) (<= (+ ?x510 A_1 ?x436) (- 5.0)))))
 (let (($x51 (= L_1 L_0)))
 (let (($x15430 (or $x51 (<= (+ ?x414 L_2 B (* (- 1.0) A_1) S_3 S_0 L_1) 0.0))))
 (let (($x34538 (or $x51 (not (<= 0.0 (+ ?x414 L_2 S_4 (* (- 1.0) A_1) S_0 L_1))))))
 (let ((?x2867 (* (- 4.0) L_2)))
 (let ((?x2406 (* 4.0 A_2)))
 (let ((?x2221 (* (- 3.0) S_4)))
 (let ((?x3724 (* (- 4.0) B)))
 (let (($x21765 (or $x1323 (not (<= 0.0 (+ ?x527 S_4 (* (- 3.0) S_2) (* 2.0 S_0)))))))
 (let (($x6819 (<= (+ (* (- (/ 1.0 2.0)) B) (* (/ 1.0 2.0) A_2) ?x447 ?x5619 (* (- (/ 1.0 2.0)) L_2)) 0.0)))
 (let (($x20109 (<= 0.0 (+ ?x1315 S_4 (* (- 3.0) A_1) (* 2.0 S_0) (* 3.0 L_1)))))
 (let ((?x2746 (* 3.0 S_0)))
 (let (($x3684 (<= (+ (* 4.0 B) S_4 (* (- 4.0) A_1) ?x2746 (* 4.0 L_1)) 0.0)))
 (let (($x34220 (or (<= (+ (* (- 2.0) B) ?x398 ?x864 ?x967 ?x860) 0.0) (<= (+ ?x938 ?x1571 ?x939 A_1 ?x967 ?x510 ?x527) 0.0))))
 (let (($x13358 (or $x1323 (<= (+ ?x414 L_2 S_4 (* (- 2.0) S_2) (* 2.0 S_0)) 0.0))))
 (let (($x20816 (<= 0.0 (+ (* (- 1.0) A_1) (* (/ 1.0 2.0) S_3) ?x5619 L_1))))
 (let (($x970 (<= (+ ?x942 ?x943 (* 3.0 A_1) ?x967 (* (- 3.0) L_1) ?x527) 0.0)))
 (let (($x4909 (<= (+ ?x3363 (* 3.0 A_1) (* (- 2.0) S_3) ?x967 (* (- 3.0) L_1)) 0.0)))
 (let (($x21450 (not (<= 0.0 (+ (* (- 2.0) B) S_4 A_1 (* (- 2.0) S_3) ?x510)))))
 (let (($x22685 (or $x1554 (<= (+ (* (- 2.0) B) S_4 ?x864 (* (- 3.0) S_3) ?x860) 0.0))))
 (let (($x11973 (or $x51 (<= (+ ?x1315 (* (- 2.0) A_1) S_2 S_0 (* 2.0 L_1)) 0.0))))
 (let (($x3690 (<= (+ ?x1269 (* (- 3.0) A_1) S_3 (* 2.0 S_0) (* 3.0 L_1)) 0.0)))
 (let (($x34496 (or $x61 (not (<= (+ ?x939 ?x938 ?x398 (* (- 1.0) A_1) L_1) 0.0)))))
 (let ((?x2422 (* (- (/ 3.0 2.0)) L_1)))
 (let ((?x2560 (* (/ 3.0 2.0) A_1)))
 (let ((?x1737 (* (- (/ 1.0 2.0)) S_4)))
 (let ((?x3388 (* (- (/ 3.0 2.0)) B)))
 (let (($x35135 (or (<= (+ ?x3388 ?x1737 ?x2560 ?x989 ?x2422 L_0) 0.0) (<= (+ ?x497 ?x398 A_2 A_1 ?x989 ?x510 ?x527 L_0) 0.0))))
 (let (($x22872 (or (not (<= (+ ?x974 ?x1570 ?x1571 (* (- 1.0) S_1)) 0.0)) (<= (+ ?x497 ?x398 A_2 A_1 (* (- 1.0) S_1) ?x510 ?x527) 0.0))))
 (let (($x23236 (or $x61 (<= (+ L_2 ?x414 ?x864 (* (- 1.0) S_1) ?x860 ?x527) 0.0))))
 (let (($x2826 (<= (+ ?x974 ?x1570 ?x1571 (* (- 1.0) S_1)) 0.0)))
 (let (($x11749 (or $x51 (<= (+ ?x3404 ?x1737 (* (- (/ 1.0 2.0)) A_1) S_2 (* (/ 1.0 2.0) L_1)) 0.0))))
 (let (($x35121 (or $x1554 (<= (+ (* (- 2.0) B) ?x864 ?x436 (* (- 1.0) S_1) ?x860) 0.0))))
 (let (($x20874 (<= (+ (* (- (/ 1.0 2.0)) B) ?x1737 (* (/ 1.0 2.0) A_1) (* (- (/ 1.0 2.0)) L_1)) (- 5.0))))
 (let (($x20477 (<= (+ A_2 ?x497 ?x398) (- 5.0))))
 (let (($x17250 (or (<= (+ (* (- (/ 1.0 2.0)) L_1) (* (/ 1.0 2.0) A_1) ?x1737) (- 5.0)) $x20477 (<= (+ (* (- (/ 1.0 3.0)) S_4) ?x2348) (- 5.0)))))
 (let (($x965 (<= (+ ?x497 A_2 (* (- 2.0) A_1) S_0 (* 2.0 L_1) B) 0.0)))
 (let (($x25392 (or $x51 (<= (+ ?x938 ?x398 ?x939 (* (- 1.0) A_1) L_1 ?x527) 0.0))))
 (let (($x955 (<= (+ A_1 ?x447 ?x510 ?x527) 0.0)))
 (let (($x108 (>= S_1 S_0)))
 (let (($x111 (>= S_2 S_1)))
 (let (($x114 (>= S_3 S_2)))
 (let (($x117 (>= S_4 S_3)))
 (let (($x119 (>= A_1 A_0)))
 (let (($x120 (>= A_2 A_1)))
 (let (($x121 (>= A_3 A_2)))
 (let (($x122 (>= A_4 A_3)))
 (and $x122 $x121 $x120 $x119 $x117 $x114 $x111 $x108 (or (not (<= 0.0 (+ ?x510 L_0))) $x51) (<= (+ ?x497 A_2 ?x436 ?x527) 0.0) $x955 (or $x51 (<= (+ (* (- 1.0) A_1) S_1 L_1 B) 0.0)) (or $x61 (not (<= 0.0 (+ ?x497 L_1)))) (or $x61 (<= (+ L_2 ?x414 S_2 B) 0.0)) $x25392 (or $x51 $x965) (or $x1554 (<= (+ S_4 (* (- 3.0) S_3) (* 2.0 S_1)) 0.0)) (or $x1554 (<= (+ (* (- 2.0) S_3) (* 3.0 S_1) ?x967) 0.0)) (or $x20477 (<= (+ ?x1737 (* (/ 1.0 2.0) S_1)) (- 5.0))) $x17250 (or (<= (+ ?x436 S_1) (- 5.0)) $x1554) (<= (+ ?x414 L_2 S_2) 0.0) (or $x1323 (<= (+ ?x447 S_0) (- 5.0))) (or $x1323 (<= (+ ?x414 L_2 S_3 ?x447 S_0) 0.0)) (or $x1323 (<= (+ S_3 (* (- 3.0) S_2) (* 2.0 S_0)) 0.0)) (or $x1323 (<= (+ S_4 (* (- 4.0) S_2) ?x2746) 0.0)) (or $x61 (<= (+ L_2 ?x414 ?x864 ?x989 ?x860 ?x527 L_0) 0.0)) (or $x51 (<= (+ B (* (- 1.0) A_1) S_0 L_1) (- 5.0))) (or $x61 (<= (+ B ?x414 S_1 L_2) (- 5.0))) (or $x61 (<= (+ ?x1269 S_4 ?x861 (* 2.0 S_1) ?x856) 0.0)) (or $x61 (<= (+ L_2 ?x414 A_1 ?x510) (- 5.0))) $x20874 $x35121 (or $x1554 (<= (+ (* (- 2.0) B) ?x864 ?x989 ?x436 ?x860 L_0) 0.0)) (<= (+ ?x527 A_1 ?x436 ?x510) (- 5.0)) (or $x61 (<= (+ ?x942 ?x943 A_1 S_3 ?x510 B) 0.0)) $x11749 (or $x2826 (<= (+ ?x3388 ?x1737 ?x2560 (* (- 1.0) S_1) ?x2422) 0.0)) $x23236 $x22872 $x35135 $x34496 (or $x61 (<= (+ ?x856 S_4 ?x861 ?x864 ?x860 B) 0.0)) (or $x51 $x3690) $x11973 $x22685 (or $x1554 $x21450) (or $x1554 $x4909) (or $x61 $x970) (or $x1554 (<= (+ ?x989 ?x436 (* 2.0 S_1) L_0) 0.0)) (or $x1554 (<= (+ (* (- (/ 1.0 2.0)) S_3) ?x5619) (- 5.0)) $x20816) $x13358 (<= (+ ?x527 ?x398 A_2 ?x497) (- 5.0)) $x34220 (or $x51 $x3684) (or $x51 (not $x20109)) (<= (+ ?x3363 ?x1571 ?x974 (* (- 1.0) S_1) ?x1570) 0.0) (or $x1323 $x6819) $x21765 (<= (+ ?x3724 ?x2221 ?x2406 ?x967 ?x2867) 0.0) $x34538 $x15430 (or $x61 (<= (+ ?x1315 ?x943 (* 3.0 S_1) ?x967 ?x942) 0.0)) $x34389 (<= (+ ?x3363 ?x1571 ?x974 ?x989 ?x1570 L_0) 0.0) $x34411 (or $x61 (not (<= 0.0 (+ B S_4 ?x943 S_1 ?x942)))) (or $x1554 $x9249 (not (<= 0.0 (+ ?x2631 ?x2471 ?x436 ?x2348)))) $x1314 $x24429 (or $x61 (<= (+ ?x510 A_1 ?x1315 ?x943 S_3 ?x942) 0.0) $x6897) (or $x61 $x7827) $x34357 (<= (+ (* (- 2.0) B) ?x398 ?x939 ?x447 ?x938) 0.0) (or $x61 (<= (+ ?x860 ?x864 ?x1269 S_4 ?x861 ?x856) 0.0) $x6858) (or $x1554 (not (<= 0.0 (+ ?x527 S_4 (* (- 2.0) S_3) S_1)))) $x34140 $x19100 $x18615 (or $x1323 (not (<= 0.0 (+ ?x414 L_2 ?x527 S_4 ?x447 S_0)))) $x732 $x34 (<= (+ ?x989 S_0 L_0) 0.0) (not (>= (+ L_2 (* (- 1.0) A_3) S_4) 0.0)) (<= (+ L_1 (* (- 1.0) A_1) S_1) 0.0) (<= (+ ?x398 S_2) (- 5.0)) (<= (+ ?x2221 (* 4.0 S_2) ?x967) 0.0) $x2558 (<= (+ ?x1571 (* 3.0 S_2) (* (- 1.0) S_1)) 0.0) $x2232)))))))))))))))))))))))))))))))))))))))))))))))))))))))))))))))))))))))))))))))))))))))))))))))))
(check-sat)
